(set-info :smt-lib-version 2.6)
(set-info :category "crafted")
(set-logic QF_FF)
(define-sort FF0 () (_ FiniteField 52435875175126190479447740508185965837690552500527637822603658699938581184513))
(declare-fun a () Bool)
(declare-fun b () Bool)
(declare-fun d () Bool)
(declare-fun c () Bool)
(declare-fun out () FF0)
(declare-fun _81 () FF0)
(declare-fun _0 () FF0)
(declare-fun _80 () FF0)
(declare-fun _21 () FF0)
(declare-fun _79 () FF0)
(declare-fun _60 () FF0)
(declare-fun _78 () FF0)
(declare-fun _61 () FF0)
(declare-fun _77 () FF0)
(declare-fun _71 () FF0)
(declare-fun _76 () FF0)
(declare-fun _75 () FF0)
(declare-fun _1 () FF0)
(declare-fun _74 () FF0)
(declare-fun _72 () FF0)
(declare-fun _70 () FF0)
(declare-fun _37 () FF0)
(declare-fun _36 () FF0)
(declare-fun _62 () FF0)
(declare-fun _67 () FF0)
(declare-fun _69 () FF0)
(declare-fun _56 () FF0)
(declare-fun _50 () FF0)
(declare-fun _49 () FF0)
(declare-fun _20 () FF0)
(declare-fun _2 () FF0)
(declare-fun _28 () FF0)
(declare-fun _27 () FF0)
(declare-fun _59 () FF0)
(declare-fun _32 () FF0)
(declare-fun _57 () FF0)
(declare-fun _9 () FF0)
(declare-fun _16 () FF0)
(declare-fun _15 () FF0)
(declare-fun _3 () FF0)
(declare-fun _55 () FF0)
(declare-fun _54 () FF0)
(declare-fun _44 () FF0)
(declare-fun _43 () FF0)
(declare-fun _53 () FF0)
(declare-fun _52 () FF0)
(declare-fun _6 () FF0)
(declare-fun _31 () FF0)
(declare-fun _7 () FF0)
(declare-fun _30 () FF0)
(declare-fun _19 () FF0)
(declare-fun _18 () FF0)
(declare-fun _5 () FF0)
(declare-fun _4 () FF0)
(assert 
  (let ((let0 a))
  (let ((let1 b))
  (let ((let2 d))
  (let ((let3 c))
  (let ((let4 (and let0 let3 let1 let2)))
  (let ((let5 (= let0 let4)))
  (let ((let6 (= let5 let1)))
  (let ((let7 (= let6 let6)))
  (let ((let8 (=> let7 let0)))
  (let ((let9 (not let8)))
  (let ((let10 (ite let1 let2 let3)))
  (let ((let11 (or let5 let10 let3 let10)))
  (let ((let12 (= let11 let9)))
  (let ((let13 (not let12)))
  (let ((let14 (ite let10 let0 let4)))
  (let ((let15 (and let14 let7 let8 let5 let4)))
  (let ((let16 (ite let14 let11 let15)))
  (let ((let17 (not let11)))
  (let ((let18 (ite let17 let16 let12)))
  (let ((let19 (ite let16 let17 let15)))
  (let ((let20 (and let19 let19 let6 let18 let14 let2)))
  (let ((let21 (= let9 let9)))
  (let ((let22 (or let21 let4 let20)))
  (let ((let23 (=> let22 let6)))
  (let ((let24 (= let10 let21)))
  (let ((let25 (or let24 let23 let15)))
  (let ((let26 (=> let14 let17)))
  (let ((let27 (=> let17 let3)))
  (let ((let28 (ite let12 let21 let19)))
  (let ((let29 (and let28 let20 let28 let7)))
  (let ((let30 (and let29 let27)))
  (let ((let31 (= let16 let12)))
  (let ((let32 (=> let31 let29)))
  (let ((let33 (or let32 let8 let1)))
  (let ((let34 (and let33 let30 let26 let25 let13 let9)))
  (let ((let35 out))
  (let ((let36 (as ff1 FF0)))
  (let ((let37 (= let36 let35)))
  (let ((let38 (= let37 let34)))
  (let ((let39 (as ff0 FF0)))
  (let ((let40 (= let39 let35)))
  (let ((let41 (or let37 let40)))
  (let ((let42 (and let41 let38)))
  (let ((let43 _81))
  (let ((let44 (= let43 let35)))
  (let ((let45 (as ff52435875175126190479447740508185965837690552500527637822603658699938581184512 FF0)))
  (let ((let46 _0))
  (let ((let47 (ff.mul let46 let45)))
  (let ((let48 (ff.add let47 let36)))
  (let ((let49 _80))
  (let ((let50 (ff.mul let49 let48)))
  (let ((let51 (= let50 let43)))
  (let ((let52 _21))
  (let ((let53 _79))
  (let ((let54 (ff.mul let53 let52)))
  (let ((let55 (= let54 let49)))
  (let ((let56 _60))
  (let ((let57 _78))
  (let ((let58 (ff.mul let57 let56)))
  (let ((let59 (= let58 let53)))
  (let ((let60 _61))
  (let ((let61 _77))
  (let ((let62 (ff.mul let61 let60)))
  (let ((let63 (= let62 let57)))
  (let ((let64 _71))
  (let ((let65 _76))
  (let ((let66 (ff.mul let65 let64)))
  (let ((let67 (= let66 let61)))
  (let ((let68 (ff.mul let65 let45)))
  (let ((let69 _75))
  (let ((let70 _1))
  (let ((let71 (ff.add let70 let69 let68)))
  (let ((let72 (ff.mul let69 let70)))
  (let ((let73 (= let72 let71)))
  (let ((let74 (ff.mul let69 let45)))
  (let ((let75 _74))
  (let ((let76 (ff.add let46 let75 let74)))
  (let ((let77 (ff.mul let75 let46)))
  (let ((let78 (= let77 let76)))
  (let ((let79 (ff.mul let75 let45)))
  (let ((let80 _72))
  (let ((let81 _70))
  (let ((let82 (ff.add let81 let80 let79)))
  (let ((let83 (ff.mul let80 let81)))
  (let ((let84 (= let83 let82)))
  (let ((let85 _37))
  (let ((let86 _36))
  (let ((let87 (ff.add let52 let86 let85 let45)))
  (let ((let88 (ff.mul let87 let87)))
  (let ((let89 (= let88 let80)))
  (let ((let90 _62))
  (let ((let91 (ff.mul let81 let90)))
  (let ((let92 (= let91 let64)))
  (let ((let93 _67))
  (let ((let94 (ff.mul let52 let45)))
  (let ((let95 (ff.add let94 let93 let36)))
  (let ((let96 _69))
  (let ((let97 (ff.mul let96 let95)))
  (let ((let98 (= let97 let81)))
  (let ((let99 _56))
  (let ((let100 (ff.mul let95 let99)))
  (let ((let101 (= let100 let96)))
  (let ((let102 _50))
  (let ((let103 _49))
  (let ((let104 (ff.add let103 let102)))
  (let ((let105 (ff.mul let52 let104)))
  (let ((let106 (= let105 let93)))
  (let ((let107 (ff.mul let90 let45)))
  (let ((let108 _20))
  (let ((let109 _2))
  (let ((let110 (ff.add let109 let108 let107)))
  (let ((let111 (ff.mul let108 let109)))
  (let ((let112 (= let111 let110)))
  (let ((let113 (as ff2 FF0)))
  (let ((let114 (ff.mul let60 let45)))
  (let ((let115 _28))
  (let ((let116 (ff.mul let115 let45)))
  (let ((let117 _27))
  (let ((let118 (ff.mul let117 let45)))
  (let ((let119 (ff.mul let108 let45)))
  (let ((let120 (ff.add let119 let118 let116 let114 let113)))
  (let ((let121 (ff.add let119 let36)))
  (let ((let122 (ff.add let118 let116 let36)))
  (let ((let123 (ff.mul let122 let121)))
  (let ((let124 (= let123 let120)))
  (let ((let125 (ff.mul let56 let45)))
  (let ((let126 _59))
  (let ((let127 _32))
  (let ((let128 (ff.add let127 let126 let125)))
  (let ((let129 (ff.mul let126 let127)))
  (let ((let130 (= let129 let128)))
  (let ((let131 (ff.mul let126 let45)))
  (let ((let132 _57))
  (let ((let133 (ff.mul let132 let45)))
  (let ((let134 _9))
  (let ((let135 (ff.mul let134 let45)))
  (let ((let136 (ff.add let135 let133 let131 let113)))
  (let ((let137 (ff.add let135 let36)))
  (let ((let138 (ff.add let133 let36)))
  (let ((let139 (ff.mul let138 let137)))
  (let ((let140 (= let139 let136)))
  (let ((let141 _16))
  (let ((let142 _15))
  (let ((let143 (ff.add let142 let141 let45)))
  (let ((let144 (ff.mul let143 let143)))
  (let ((let145 (= let144 let132)))
  (let ((let146 _3))
  (let ((let147 _55))
  (let ((let148 (ff.mul let147 let146)))
  (let ((let149 (= let148 let99)))
  (let ((let150 (ff.add let117 let115)))
  (let ((let151 _54))
  (let ((let152 (ff.mul let151 let150)))
  (let ((let153 (= let152 let147)))
  (let ((let154 _44))
  (let ((let155 _43))
  (let ((let156 (ff.add let155 let154)))
  (let ((let157 _53))
  (let ((let158 (ff.mul let157 let156)))
  (let ((let159 (= let158 let151)))
  (let ((let160 _52))
  (let ((let161 (ff.mul let160 let137)))
  (let ((let162 (= let161 let157)))
  (let ((let163 (ff.mul let104 let104)))
  (let ((let164 (= let163 let160)))
  (let ((let165 (ff.mul let85 let45)))
  (let ((let166 (ff.mul let86 let45)))
  (let ((let167 (ff.add let166 let165 let36)))
  (let ((let168 (ff.mul let167 let127)))
  (let ((let169 (= let168 let102)))
  (let ((let170 (ff.add let94 let36)))
  (let ((let171 (ff.mul let108 let170)))
  (let ((let172 (= let171 let154)))
  (let ((let173 (ff.add let86 let85)))
  (let ((let174 (ff.mul let121 let173)))
  (let ((let175 (= let174 let155)))
  (let ((let176 (ff.mul let122 let127)))
  (let ((let177 (= let176 let85)))
  (let ((let178 (ff.mul let150 let108)))
  (let ((let179 (= let178 let86)))
  (let ((let180 _6))
  (let ((let181 _31))
  (let ((let182 (ff.mul let181 let180)))
  (let ((let183 (= let182 let127)))
  (let ((let184 _7))
  (let ((let185 (ff.mul let184 let45)))
  (let ((let186 (ff.add let185 let36)))
  (let ((let187 _30))
  (let ((let188 (ff.mul let187 let186)))
  (let ((let189 (= let188 let181)))
  (let ((let190 (ff.mul let150 let46)))
  (let ((let191 (= let190 let187)))
  (let ((let192 (ff.mul let141 let45)))
  (let ((let193 (ff.mul let142 let45)))
  (let ((let194 (ff.add let193 let192 let36)))
  (let ((let195 (ff.mul let194 let180)))
  (let ((let196 (= let195 let115)))
  (let ((let197 (ff.add let142 let141)))
  (let ((let198 (ff.mul let197 let46)))
  (let ((let199 (= let198 let117)))
  (let ((let200 (ff.add let46 let108 let45)))
  (let ((let201 (ff.mul let200 let200)))
  (let ((let202 (= let201 let52)))
  (let ((let203 _19))
  (let ((let204 (ff.add let142 let141 let203 let119)))
  (let ((let205 (ff.mul let203 let197)))
  (let ((let206 (= let205 let204)))
  (let ((let207 (ff.mul let203 let45)))
  (let ((let208 _18))
  (let ((let209 (ff.add let109 let208 let207)))
  (let ((let210 (ff.mul let208 let109)))
  (let ((let211 (= let210 let209)))
  (let ((let212 (ff.mul let208 let45)))
  (let ((let213 (ff.add let185 let142 let141 let212 let36)))
  (let ((let214 (ff.mul let186 let197)))
  (let ((let215 (= let214 let213)))
  (let ((let216 (ff.mul let70 let45)))
  (let ((let217 (ff.add let216 let36)))
  (let ((let218 (ff.mul let217 let109)))
  (let ((let219 (= let218 let141)))
  (let ((let220 (ff.mul let70 let146)))
  (let ((let221 (= let220 let142)))
  (let ((let222 (ff.add let216 let185 let36)))
  (let ((let223 (ff.mul let222 let222)))
  (let ((let224 (= let223 let134)))
  (let ((let225 (ff.mul let180 let45)))
  (let ((let226 (ff.add let46 let225)))
  (let ((let227 (ff.mul let226 let226)))
  (let ((let228 (= let227 let184)))
  (let ((let229 _5))
  (let ((let230 (ff.mul let229 let146)))
  (let ((let231 (= let230 let180)))
  (let ((let232 _4))
  (let ((let233 (ff.mul let232 let70)))
  (let ((let234 (= let233 let229)))
  (let ((let235 (ff.mul let46 let109)))
  (let ((let236 (= let235 let232)))
  (let ((let237 (ff.mul let146 let146)))
  (let ((let238 (= let237 let146)))
  (let ((let239 (ff.mul let109 let109)))
  (let ((let240 (= let239 let109)))
  (let ((let241 (ff.mul let70 let70)))
  (let ((let242 (= let241 let70)))
  (let ((let243 (ff.mul let46 let46)))
  (let ((let244 (= let243 let46)))
  (let ((let245 (and let244 let242 let240 let238 let236 let234 let231 let228 let224 let221 let219 let215 let211 let206 let202 let199 let196 let191 let189 let183 let179 let177 let175 let172 let169 let164 let162 let159 let153 let149 let145 let140 let130 let124 let112 let106 let101 let98 let92 let89 let84 let78 let73 let67 let63 let59 let55 let51 let44)))
  (let ((let246 (ite let0 let36 let39)))
  (let ((let247 (= let46 let246)))
  (let ((let248 (ite let1 let36 let39)))
  (let ((let249 (= let70 let248)))
  (let ((let250 (ite let2 let36 let39)))
  (let ((let251 (= let146 let250)))
  (let ((let252 (ite let3 let36 let39)))
  (let ((let253 (= let109 let252)))
  (let ((let254 (and let253 let251 let249 let247)))
  (let ((let255 (and let254 let245)))
  (let ((let256 (=> let255 let42)))
  (let ((let257 (not let256)))
  let257
))))))))))))))))))))))))))))))))))))))))))))))))))))))))))))))))))))))))))))))))))))))))))))))))))))))))))))))))))))))))))))))))))))))))))))))))))))))))))))))))))))))))))))))))))))))))))))))))))))))))))))))))))))))))))))))))))))))))))))))))))))))))))))))))))
)
(check-sat)
